c Created with the Wolfram Language : www.wolfram.com
c 
p edge 80 461
e 3 4
e 4 5
e 5 9
e 9 11
e 4 12
e 3 13
e 10 13
e 12 16
e 14 16
e 9 18
e 11 18
e 16 18
e 7 19
e 15 19
e 9 20
e 14 20
e 15 20
e 7 21
e 16 21
e 19 21
e 3 22
e 4 22
e 8 22
e 9 22
e 13 22
e 15 23
e 18 23
e 11 24
e 14 24
e 17 24
e 18 24
e 1 25
e 9 25
e 15 25
e 18 25
e 21 25
e 1 26
e 13 26
e 16 26
e 9 27
e 22 27
e 12 28
e 15 28
e 24 28
e 25 28
e 10 29
e 16 29
e 20 29
e 25 29
e 28 29
e 11 30
e 12 30
e 13 30
e 14 30
e 16 30
e 24 30
e 8 31
e 13 31
e 5 32
e 31 32
e 6 33
e 7 33
e 13 33
e 16 33
e 20 33
e 29 33
e 30 33
e 15 34
e 16 34
e 17 34
e 18 34
e 22 34
e 25 34
e 27 34
e 8 35
e 18 35
e 23 35
e 25 35
e 28 35
e 3 36
e 15 36
e 19 36
e 21 36
e 23 36
e 27 36
e 32 36
e 3 37
e 9 37
e 12 37
e 16 37
e 29 37
e 3 38
e 12 38
e 21 38
e 30 38
e 3 39
e 4 39
e 6 39
e 9 39
e 12 39
e 23 39
e 27 39
e 29 39
e 1 40
e 3 40
e 7 40
e 14 40
e 15 40
e 23 40
e 37 40
e 13 41
e 24 41
e 25 41
e 31 41
e 8 42
e 18 42
e 19 42
e 20 42
e 22 42
e 24 42
e 34 42
e 36 42
e 38 42
e 2 43
e 4 43
e 7 43
e 20 43
e 28 43
e 32 43
e 36 43
e 7 44
e 9 44
e 18 44
e 20 44
e 23 44
e 38 44
e 3 45
e 9 45
e 25 45
e 26 45
e 27 45
e 28 45
e 40 45
e 42 45
e 4 46
e 5 46
e 18 46
e 20 46
e 22 46
e 34 46
e 35 46
e 39 46
e 42 46
e 43 46
e 44 46
e 23 47
e 40 47
e 5 48
e 7 48
e 11 48
e 30 48
e 31 48
e 35 48
e 36 48
e 43 48
e 5 49
e 22 49
e 33 49
e 38 49
e 45 49
e 5 50
e 17 50
e 29 50
e 40 50
e 44 50
e 49 50
e 4 51
e 5 51
e 6 51
e 7 51
e 11 51
e 20 51
e 30 51
e 37 51
e 38 51
e 39 51
e 45 51
e 4 52
e 12 52
e 18 52
e 26 52
e 32 52
e 33 52
e 38 52
e 49 52
e 24 53
e 30 53
e 32 53
e 38 53
e 41 53
e 51 53
e 6 54
e 14 54
e 34 54
e 38 54
e 42 54
e 48 54
e 50 54
e 53 54
e 1 55
e 6 55
e 18 55
e 23 55
e 27 55
e 36 55
e 39 55
e 41 55
e 50 55
e 15 56
e 16 56
e 18 56
e 24 56
e 30 56
e 38 56
e 47 56
e 52 56
e 54 56
e 9 57
e 16 57
e 24 57
e 42 57
e 43 57
e 53 57
e 3 58
e 4 58
e 8 58
e 11 58
e 15 58
e 24 58
e 41 58
e 42 58
e 46 58
e 52 58
e 56 58
e 4 59
e 11 59
e 20 59
e 30 59
e 54 59
e 57 59
e 1 60
e 18 60
e 21 60
e 22 60
e 24 60
e 25 60
e 29 60
e 31 60
e 41 60
e 53 60
e 58 60
e 59 60
e 6 61
e 9 61
e 18 61
e 20 61
e 26 61
e 43 61
e 46 61
e 48 61
e 59 61
e 6 62
e 16 62
e 21 62
e 26 62
e 31 62
e 42 62
e 4 63
e 5 63
e 7 63
e 15 63
e 24 63
e 37 63
e 41 63
e 42 63
e 56 63
e 59 63
e 61 63
e 3 64
e 8 64
e 9 64
e 10 64
e 23 64
e 34 64
e 35 64
e 59 64
e 8 65
e 10 65
e 24 65
e 28 65
e 33 65
e 45 65
e 49 65
e 58 65
e 2 66
e 3 66
e 8 66
e 9 66
e 23 66
e 36 66
e 48 66
e 50 66
e 53 66
e 56 66
e 64 66
e 65 66
e 10 67
e 17 67
e 18 67
e 30 67
e 33 67
e 43 67
e 8 68
e 9 68
e 10 68
e 44 68
e 66 68
e 3 69
e 10 69
e 15 69
e 21 69
e 25 69
e 33 69
e 37 69
e 60 69
e 62 69
e 2 70
e 3 70
e 4 70
e 14 70
e 21 70
e 33 70
e 51 70
e 53 70
e 61 70
e 62 70
e 68 70
e 2 71
e 7 71
e 9 71
e 19 71
e 35 71
e 36 71
e 48 71
e 51 71
e 52 71
e 54 71
e 67 71
e 29 72
e 35 72
e 43 72
e 45 72
e 59 72
e 61 72
e 63 72
e 64 72
e 67 72
e 4 73
e 7 73
e 22 73
e 33 73
e 36 73
e 40 73
e 41 73
e 42 73
e 64 73
e 66 73
e 67 73
e 69 73
e 72 73
e 20 74
e 36 74
e 41 74
e 48 74
e 63 74
e 68 74
e 1 75
e 15 75
e 18 75
e 21 75
e 29 75
e 37 75
e 49 75
e 64 75
e 70 75
e 72 75
e 1 76
e 13 76
e 16 76
e 17 76
e 22 76
e 24 76
e 25 76
e 36 76
e 43 76
e 47 76
e 51 76
e 59 76
e 75 76
e 5 77
e 6 77
e 7 77
e 13 77
e 14 77
e 15 77
e 16 77
e 22 77
e 24 77
e 28 77
e 35 77
e 37 77
e 38 77
e 42 77
e 46 77
e 54 77
e 60 77
e 62 77
e 64 77
e 70 77
e 71 77
e 73 77
e 7 78
e 13 78
e 17 78
e 22 78
e 29 78
e 39 78
e 41 78
e 72 78
e 77 78
e 3 79
e 8 79
e 10 79
e 27 79
e 34 79
e 50 79
e 52 79
e 61 79
e 73 79
e 20 80
e 23 80
e 27 80
e 36 80
e 39 80
e 42 80
e 46 80
e 51 80
e 59 80
e 60 80
e 69 80
e 78 80
